
  22   10
  10   10   10   10   10   10   10   10   10   10

   0   0   0   0   0   0   0   0   0   0   0  15 2 3 4 5 6 7 8 9 15 16 17 18 19 20 21 
   6   0  10   0   0   0   0   0   0   0   0   3 14 12 10 
   4   0   0   0   0  10   0   0   0   0   0   2 13 11 
   5   0  10   0   0   0   0   0   0   0   0   2 13 10 
   1   0   0  10   0   0   0   0   0   0   0   2 11 10 
   4   0   0   0  10   0   0   0   0   0   0   1 12 
   4   0   0  10   0   0   0   0   0   0   0   1 11 
   9   0   0   0  10   0   0   0   0   0   0   1 10 
   9   0   0   0   0   0  10   0   0   0   0   1 10 
  10   0   0   0  10   0   0   0   0   0   0   1 22
   4  10   0   0   0   0   0   0   0   0   0   1 22
   9   0   0   0  10   0   0   0   0   0   0   1 22
   9   0   0  10   0   0   0   0   0   0   0   1 22
   6  10   0   0   0   0   0   0   0   0   0   1 22
   5   0   0   0   0  10   0   0   0   0   0   1 22
   8   0   0   0  10   0   0   0   0   0   0   1 22
   5   0   0   0  10   0   0   0   0   0   0   1 22
   8  10   0   0   0   0   0   0   0   0   0   1 22
   1  10   0   0   0   0   0   0   0   0   0   1 22
   5   0   0   0   0   0   0   0   0  10   0   1 22
   8   0   0   0   0   0   0   0   0  10   0   1 22
   0   0   0   0   0   0   0   0   0   0   0   0 
